c Sudoku solution
p cnf 729 0
163 0
184 0
217 0
238 0
299 0
323 0
334 0
351 0
375 0
425 0
439 0
472 0
498 0
561 0
613 0
637 0
646 0
729 0
853 0
878 0
388 0
885 0
918 0
926 0
827 0
983 0
979 0
733 0
273 0
443 0
593 0
695 0
997 0
177 0
152 0
148 0
121 0
222 0
281 0
196 0
392 0
135 0
119 0
316 0
715 0
814 0
411 0
486 0
574 0
671 0
689 0
587 0
624 0
528 0
512 0
536 0
658 0
662 0
768 0
559 0
545 0
244 0
776 0
794 0
782 0
891 0
741 0
942 0
849 0
757 0
866 0
832 0
931 0
347 0
369 0
256 0
265 0
955 0
964 0
454 0
467 0
